data/input/generated/281.dat
set P := 1 2 3 4 5 6 7 8 9 10 11 12 13 14 15;

set I := 1;

param 
v [*,*]
:      1       :=
1    0.4333
2    0.1897
3    0.4538
4    0.6437
5    0.9085
6    0.4991
7    0.1972
8    0.6231
9    0.2146
10   0.9241
11   0.3912
12   0.6129
13   0.0205
14   0.7794
15   0.4268
;

