data/lp_files/pEF/281.lp
\ Model foo
\ LP format - for model browsing. Use MPS format to capture full model detail.
Minimize
  z
Subject To
 allocateEach[1]: x[1,1] + x[2,1] + x[3,1] + x[4,1] + x[5,1] + x[6,1]
   + x[7,1] + x[8,1] + x[9,1] + x[10,1] + x[11,1] + x[12,1] + x[13,1]
   + x[14,1] + x[15,1] = 1
 findWorstP[1,2]: z + x[1,1] - x[2,1] >= 0
 findWorstP[1,3]: z + x[1,1] - x[3,1] >= 0
 findWorstP[1,4]: z + x[1,1] - x[4,1] >= 0
 findWorstP[1,5]: z + x[1,1] - x[5,1] >= 0
 findWorstP[1,6]: z + x[1,1] - x[6,1] >= 0
 findWorstP[1,7]: z + x[1,1] - x[7,1] >= 0
 findWorstP[1,8]: z + x[1,1] - x[8,1] >= 0
 findWorstP[1,9]: z + x[1,1] - x[9,1] >= 0
 findWorstP[1,10]: z + x[1,1] - x[10,1] >= 0
 findWorstP[1,11]: z + x[1,1] - x[11,1] >= 0
 findWorstP[1,12]: z + x[1,1] - x[12,1] >= 0
 findWorstP[1,13]: z + x[1,1] - x[13,1] >= 0
 findWorstP[1,14]: z + x[1,1] - x[14,1] >= 0
 findWorstP[1,15]: z + x[1,1] - x[15,1] >= 0
 findWorstP[2,1]: z - x[1,1] + x[2,1] >= 0
 findWorstP[2,3]: z + x[2,1] - x[3,1] >= 0
 findWorstP[2,4]: z + x[2,1] - x[4,1] >= 0
 findWorstP[2,5]: z + x[2,1] - x[5,1] >= 0
 findWorstP[2,6]: z + x[2,1] - x[6,1] >= 0
 findWorstP[2,7]: z + x[2,1] - x[7,1] >= 0
 findWorstP[2,8]: z + x[2,1] - x[8,1] >= 0
 findWorstP[2,9]: z + x[2,1] - x[9,1] >= 0
 findWorstP[2,10]: z + x[2,1] - x[10,1] >= 0
 findWorstP[2,11]: z + x[2,1] - x[11,1] >= 0
 findWorstP[2,12]: z + x[2,1] - x[12,1] >= 0
 findWorstP[2,13]: z + x[2,1] - x[13,1] >= 0
 findWorstP[2,14]: z + x[2,1] - x[14,1] >= 0
 findWorstP[2,15]: z + x[2,1] - x[15,1] >= 0
 findWorstP[3,1]: z - x[1,1] + x[3,1] >= 0
 findWorstP[3,2]: z - x[2,1] + x[3,1] >= 0
 findWorstP[3,4]: z + x[3,1] - x[4,1] >= 0
 findWorstP[3,5]: z + x[3,1] - x[5,1] >= 0
 findWorstP[3,6]: z + x[3,1] - x[6,1] >= 0
 findWorstP[3,7]: z + x[3,1] - x[7,1] >= 0
 findWorstP[3,8]: z + x[3,1] - x[8,1] >= 0
 findWorstP[3,9]: z + x[3,1] - x[9,1] >= 0
 findWorstP[3,10]: z + x[3,1] - x[10,1] >= 0
 findWorstP[3,11]: z + x[3,1] - x[11,1] >= 0
 findWorstP[3,12]: z + x[3,1] - x[12,1] >= 0
 findWorstP[3,13]: z + x[3,1] - x[13,1] >= 0
 findWorstP[3,14]: z + x[3,1] - x[14,1] >= 0
 findWorstP[3,15]: z + x[3,1] - x[15,1] >= 0
 findWorstP[4,1]: z - x[1,1] + x[4,1] >= 0
 findWorstP[4,2]: z - x[2,1] + x[4,1] >= 0
 findWorstP[4,3]: z - x[3,1] + x[4,1] >= 0
 findWorstP[4,5]: z + x[4,1] - x[5,1] >= 0
 findWorstP[4,6]: z + x[4,1] - x[6,1] >= 0
 findWorstP[4,7]: z + x[4,1] - x[7,1] >= 0
 findWorstP[4,8]: z + x[4,1] - x[8,1] >= 0
 findWorstP[4,9]: z + x[4,1] - x[9,1] >= 0
 findWorstP[4,10]: z + x[4,1] - x[10,1] >= 0
 findWorstP[4,11]: z + x[4,1] - x[11,1] >= 0
 findWorstP[4,12]: z + x[4,1] - x[12,1] >= 0
 findWorstP[4,13]: z + x[4,1] - x[13,1] >= 0
 findWorstP[4,14]: z + x[4,1] - x[14,1] >= 0
 findWorstP[4,15]: z + x[4,1] - x[15,1] >= 0
 findWorstP[5,1]: z - x[1,1] + x[5,1] >= 0
 findWorstP[5,2]: z - x[2,1] + x[5,1] >= 0
 findWorstP[5,3]: z - x[3,1] + x[5,1] >= 0
 findWorstP[5,4]: z - x[4,1] + x[5,1] >= 0
 findWorstP[5,6]: z + x[5,1] - x[6,1] >= 0
 findWorstP[5,7]: z + x[5,1] - x[7,1] >= 0
 findWorstP[5,8]: z + x[5,1] - x[8,1] >= 0
 findWorstP[5,9]: z + x[5,1] - x[9,1] >= 0
 findWorstP[5,10]: z + x[5,1] - x[10,1] >= 0
 findWorstP[5,11]: z + x[5,1] - x[11,1] >= 0
 findWorstP[5,12]: z + x[5,1] - x[12,1] >= 0
 findWorstP[5,13]: z + x[5,1] - x[13,1] >= 0
 findWorstP[5,14]: z + x[5,1] - x[14,1] >= 0
 findWorstP[5,15]: z + x[5,1] - x[15,1] >= 0
 findWorstP[6,1]: z - x[1,1] + x[6,1] >= 0
 findWorstP[6,2]: z - x[2,1] + x[6,1] >= 0
 findWorstP[6,3]: z - x[3,1] + x[6,1] >= 0
 findWorstP[6,4]: z - x[4,1] + x[6,1] >= 0
 findWorstP[6,5]: z - x[5,1] + x[6,1] >= 0
 findWorstP[6,7]: z + x[6,1] - x[7,1] >= 0
 findWorstP[6,8]: z + x[6,1] - x[8,1] >= 0
 findWorstP[6,9]: z + x[6,1] - x[9,1] >= 0
 findWorstP[6,10]: z + x[6,1] - x[10,1] >= 0
 findWorstP[6,11]: z + x[6,1] - x[11,1] >= 0
 findWorstP[6,12]: z + x[6,1] - x[12,1] >= 0
 findWorstP[6,13]: z + x[6,1] - x[13,1] >= 0
 findWorstP[6,14]: z + x[6,1] - x[14,1] >= 0
 findWorstP[6,15]: z + x[6,1] - x[15,1] >= 0
 findWorstP[7,1]: z - x[1,1] + x[7,1] >= 0
 findWorstP[7,2]: z - x[2,1] + x[7,1] >= 0
 findWorstP[7,3]: z - x[3,1] + x[7,1] >= 0
 findWorstP[7,4]: z - x[4,1] + x[7,1] >= 0
 findWorstP[7,5]: z - x[5,1] + x[7,1] >= 0
 findWorstP[7,6]: z - x[6,1] + x[7,1] >= 0
 findWorstP[7,8]: z + x[7,1] - x[8,1] >= 0
 findWorstP[7,9]: z + x[7,1] - x[9,1] >= 0
 findWorstP[7,10]: z + x[7,1] - x[10,1] >= 0
 findWorstP[7,11]: z + x[7,1] - x[11,1] >= 0
 findWorstP[7,12]: z + x[7,1] - x[12,1] >= 0
 findWorstP[7,13]: z + x[7,1] - x[13,1] >= 0
 findWorstP[7,14]: z + x[7,1] - x[14,1] >= 0
 findWorstP[7,15]: z + x[7,1] - x[15,1] >= 0
 findWorstP[8,1]: z - x[1,1] + x[8,1] >= 0
 findWorstP[8,2]: z - x[2,1] + x[8,1] >= 0
 findWorstP[8,3]: z - x[3,1] + x[8,1] >= 0
 findWorstP[8,4]: z - x[4,1] + x[8,1] >= 0
 findWorstP[8,5]: z - x[5,1] + x[8,1] >= 0
 findWorstP[8,6]: z - x[6,1] + x[8,1] >= 0
 findWorstP[8,7]: z - x[7,1] + x[8,1] >= 0
 findWorstP[8,9]: z + x[8,1] - x[9,1] >= 0
 findWorstP[8,10]: z + x[8,1] - x[10,1] >= 0
 findWorstP[8,11]: z + x[8,1] - x[11,1] >= 0
 findWorstP[8,12]: z + x[8,1] - x[12,1] >= 0
 findWorstP[8,13]: z + x[8,1] - x[13,1] >= 0
 findWorstP[8,14]: z + x[8,1] - x[14,1] >= 0
 findWorstP[8,15]: z + x[8,1] - x[15,1] >= 0
 findWorstP[9,1]: z - x[1,1] + x[9,1] >= 0
 findWorstP[9,2]: z - x[2,1] + x[9,1] >= 0
 findWorstP[9,3]: z - x[3,1] + x[9,1] >= 0
 findWorstP[9,4]: z - x[4,1] + x[9,1] >= 0
 findWorstP[9,5]: z - x[5,1] + x[9,1] >= 0
 findWorstP[9,6]: z - x[6,1] + x[9,1] >= 0
 findWorstP[9,7]: z - x[7,1] + x[9,1] >= 0
 findWorstP[9,8]: z - x[8,1] + x[9,1] >= 0
 findWorstP[9,10]: z + x[9,1] - x[10,1] >= 0
 findWorstP[9,11]: z + x[9,1] - x[11,1] >= 0
 findWorstP[9,12]: z + x[9,1] - x[12,1] >= 0
 findWorstP[9,13]: z + x[9,1] - x[13,1] >= 0
 findWorstP[9,14]: z + x[9,1] - x[14,1] >= 0
 findWorstP[9,15]: z + x[9,1] - x[15,1] >= 0
 findWorstP[10,1]: z - x[1,1] + x[10,1] >= 0
 findWorstP[10,2]: z - x[2,1] + x[10,1] >= 0
 findWorstP[10,3]: z - x[3,1] + x[10,1] >= 0
 findWorstP[10,4]: z - x[4,1] + x[10,1] >= 0
 findWorstP[10,5]: z - x[5,1] + x[10,1] >= 0
 findWorstP[10,6]: z - x[6,1] + x[10,1] >= 0
 findWorstP[10,7]: z - x[7,1] + x[10,1] >= 0
 findWorstP[10,8]: z - x[8,1] + x[10,1] >= 0
 findWorstP[10,9]: z - x[9,1] + x[10,1] >= 0
 findWorstP[10,11]: z + x[10,1] - x[11,1] >= 0
 findWorstP[10,12]: z + x[10,1] - x[12,1] >= 0
 findWorstP[10,13]: z + x[10,1] - x[13,1] >= 0
 findWorstP[10,14]: z + x[10,1] - x[14,1] >= 0
 findWorstP[10,15]: z + x[10,1] - x[15,1] >= 0
 findWorstP[11,1]: z - x[1,1] + x[11,1] >= 0
 findWorstP[11,2]: z - x[2,1] + x[11,1] >= 0
 findWorstP[11,3]: z - x[3,1] + x[11,1] >= 0
 findWorstP[11,4]: z - x[4,1] + x[11,1] >= 0
 findWorstP[11,5]: z - x[5,1] + x[11,1] >= 0
 findWorstP[11,6]: z - x[6,1] + x[11,1] >= 0
 findWorstP[11,7]: z - x[7,1] + x[11,1] >= 0
 findWorstP[11,8]: z - x[8,1] + x[11,1] >= 0
 findWorstP[11,9]: z - x[9,1] + x[11,1] >= 0
 findWorstP[11,10]: z - x[10,1] + x[11,1] >= 0
 findWorstP[11,12]: z + x[11,1] - x[12,1] >= 0
 findWorstP[11,13]: z + x[11,1] - x[13,1] >= 0
 findWorstP[11,14]: z + x[11,1] - x[14,1] >= 0
 findWorstP[11,15]: z + x[11,1] - x[15,1] >= 0
 findWorstP[12,1]: z - x[1,1] + x[12,1] >= 0
 findWorstP[12,2]: z - x[2,1] + x[12,1] >= 0
 findWorstP[12,3]: z - x[3,1] + x[12,1] >= 0
 findWorstP[12,4]: z - x[4,1] + x[12,1] >= 0
 findWorstP[12,5]: z - x[5,1] + x[12,1] >= 0
 findWorstP[12,6]: z - x[6,1] + x[12,1] >= 0
 findWorstP[12,7]: z - x[7,1] + x[12,1] >= 0
 findWorstP[12,8]: z - x[8,1] + x[12,1] >= 0
 findWorstP[12,9]: z - x[9,1] + x[12,1] >= 0
 findWorstP[12,10]: z - x[10,1] + x[12,1] >= 0
 findWorstP[12,11]: z - x[11,1] + x[12,1] >= 0
 findWorstP[12,13]: z + x[12,1] - x[13,1] >= 0
 findWorstP[12,14]: z + x[12,1] - x[14,1] >= 0
 findWorstP[12,15]: z + x[12,1] - x[15,1] >= 0
 findWorstP[13,1]: z - x[1,1] + x[13,1] >= 0
 findWorstP[13,2]: z - x[2,1] + x[13,1] >= 0
 findWorstP[13,3]: z - x[3,1] + x[13,1] >= 0
 findWorstP[13,4]: z - x[4,1] + x[13,1] >= 0
 findWorstP[13,5]: z - x[5,1] + x[13,1] >= 0
 findWorstP[13,6]: z - x[6,1] + x[13,1] >= 0
 findWorstP[13,7]: z - x[7,1] + x[13,1] >= 0
 findWorstP[13,8]: z - x[8,1] + x[13,1] >= 0
 findWorstP[13,9]: z - x[9,1] + x[13,1] >= 0
 findWorstP[13,10]: z - x[10,1] + x[13,1] >= 0
 findWorstP[13,11]: z - x[11,1] + x[13,1] >= 0
 findWorstP[13,12]: z - x[12,1] + x[13,1] >= 0
 findWorstP[13,14]: z + x[13,1] - x[14,1] >= 0
 findWorstP[13,15]: z + x[13,1] - x[15,1] >= 0
 findWorstP[14,1]: z - x[1,1] + x[14,1] >= 0
 findWorstP[14,2]: z - x[2,1] + x[14,1] >= 0
 findWorstP[14,3]: z - x[3,1] + x[14,1] >= 0
 findWorstP[14,4]: z - x[4,1] + x[14,1] >= 0
 findWorstP[14,5]: z - x[5,1] + x[14,1] >= 0
 findWorstP[14,6]: z - x[6,1] + x[14,1] >= 0
 findWorstP[14,7]: z - x[7,1] + x[14,1] >= 0
 findWorstP[14,8]: z - x[8,1] + x[14,1] >= 0
 findWorstP[14,9]: z - x[9,1] + x[14,1] >= 0
 findWorstP[14,10]: z - x[10,1] + x[14,1] >= 0
 findWorstP[14,11]: z - x[11,1] + x[14,1] >= 0
 findWorstP[14,12]: z - x[12,1] + x[14,1] >= 0
 findWorstP[14,13]: z - x[13,1] + x[14,1] >= 0
 findWorstP[14,15]: z + x[14,1] - x[15,1] >= 0
 findWorstP[15,1]: z - x[1,1] + x[15,1] >= 0
 findWorstP[15,2]: z - x[2,1] + x[15,1] >= 0
 findWorstP[15,3]: z - x[3,1] + x[15,1] >= 0
 findWorstP[15,4]: z - x[4,1] + x[15,1] >= 0
 findWorstP[15,5]: z - x[5,1] + x[15,1] >= 0
 findWorstP[15,6]: z - x[6,1] + x[15,1] >= 0
 findWorstP[15,7]: z - x[7,1] + x[15,1] >= 0
 findWorstP[15,8]: z - x[8,1] + x[15,1] >= 0
 findWorstP[15,9]: z - x[9,1] + x[15,1] >= 0
 findWorstP[15,10]: z - x[10,1] + x[15,1] >= 0
 findWorstP[15,11]: z - x[11,1] + x[15,1] >= 0
 findWorstP[15,12]: z - x[12,1] + x[15,1] >= 0
 findWorstP[15,13]: z - x[13,1] + x[15,1] >= 0
 findWorstP[15,14]: z - x[14,1] + x[15,1] >= 0
Bounds
 z <= 1
Binaries
 x[1,1] x[2,1] x[3,1] x[4,1] x[5,1] x[6,1] x[7,1] x[8,1] x[9,1] x[10,1]
 x[11,1] x[12,1] x[13,1] x[14,1] x[15,1]
End
