data/mps_files/pEF/281.mps
NAME foo
ROWS
 N  OBJ
 E  allocateEach[1]
 G  findWorstP[1,2]
 G  findWorstP[1,3]
 G  findWorstP[1,4]
 G  findWorstP[1,5]
 G  findWorstP[1,6]
 G  findWorstP[1,7]
 G  findWorstP[1,8]
 G  findWorstP[1,9]
 G  findWorstP[1,10]
 G  findWorstP[1,11]
 G  findWorstP[1,12]
 G  findWorstP[1,13]
 G  findWorstP[1,14]
 G  findWorstP[1,15]
 G  findWorstP[2,1]
 G  findWorstP[2,3]
 G  findWorstP[2,4]
 G  findWorstP[2,5]
 G  findWorstP[2,6]
 G  findWorstP[2,7]
 G  findWorstP[2,8]
 G  findWorstP[2,9]
 G  findWorstP[2,10]
 G  findWorstP[2,11]
 G  findWorstP[2,12]
 G  findWorstP[2,13]
 G  findWorstP[2,14]
 G  findWorstP[2,15]
 G  findWorstP[3,1]
 G  findWorstP[3,2]
 G  findWorstP[3,4]
 G  findWorstP[3,5]
 G  findWorstP[3,6]
 G  findWorstP[3,7]
 G  findWorstP[3,8]
 G  findWorstP[3,9]
 G  findWorstP[3,10]
 G  findWorstP[3,11]
 G  findWorstP[3,12]
 G  findWorstP[3,13]
 G  findWorstP[3,14]
 G  findWorstP[3,15]
 G  findWorstP[4,1]
 G  findWorstP[4,2]
 G  findWorstP[4,3]
 G  findWorstP[4,5]
 G  findWorstP[4,6]
 G  findWorstP[4,7]
 G  findWorstP[4,8]
 G  findWorstP[4,9]
 G  findWorstP[4,10]
 G  findWorstP[4,11]
 G  findWorstP[4,12]
 G  findWorstP[4,13]
 G  findWorstP[4,14]
 G  findWorstP[4,15]
 G  findWorstP[5,1]
 G  findWorstP[5,2]
 G  findWorstP[5,3]
 G  findWorstP[5,4]
 G  findWorstP[5,6]
 G  findWorstP[5,7]
 G  findWorstP[5,8]
 G  findWorstP[5,9]
 G  findWorstP[5,10]
 G  findWorstP[5,11]
 G  findWorstP[5,12]
 G  findWorstP[5,13]
 G  findWorstP[5,14]
 G  findWorstP[5,15]
 G  findWorstP[6,1]
 G  findWorstP[6,2]
 G  findWorstP[6,3]
 G  findWorstP[6,4]
 G  findWorstP[6,5]
 G  findWorstP[6,7]
 G  findWorstP[6,8]
 G  findWorstP[6,9]
 G  findWorstP[6,10]
 G  findWorstP[6,11]
 G  findWorstP[6,12]
 G  findWorstP[6,13]
 G  findWorstP[6,14]
 G  findWorstP[6,15]
 G  findWorstP[7,1]
 G  findWorstP[7,2]
 G  findWorstP[7,3]
 G  findWorstP[7,4]
 G  findWorstP[7,5]
 G  findWorstP[7,6]
 G  findWorstP[7,8]
 G  findWorstP[7,9]
 G  findWorstP[7,10]
 G  findWorstP[7,11]
 G  findWorstP[7,12]
 G  findWorstP[7,13]
 G  findWorstP[7,14]
 G  findWorstP[7,15]
 G  findWorstP[8,1]
 G  findWorstP[8,2]
 G  findWorstP[8,3]
 G  findWorstP[8,4]
 G  findWorstP[8,5]
 G  findWorstP[8,6]
 G  findWorstP[8,7]
 G  findWorstP[8,9]
 G  findWorstP[8,10]
 G  findWorstP[8,11]
 G  findWorstP[8,12]
 G  findWorstP[8,13]
 G  findWorstP[8,14]
 G  findWorstP[8,15]
 G  findWorstP[9,1]
 G  findWorstP[9,2]
 G  findWorstP[9,3]
 G  findWorstP[9,4]
 G  findWorstP[9,5]
 G  findWorstP[9,6]
 G  findWorstP[9,7]
 G  findWorstP[9,8]
 G  findWorstP[9,10]
 G  findWorstP[9,11]
 G  findWorstP[9,12]
 G  findWorstP[9,13]
 G  findWorstP[9,14]
 G  findWorstP[9,15]
 G  findWorstP[10,1]
 G  findWorstP[10,2]
 G  findWorstP[10,3]
 G  findWorstP[10,4]
 G  findWorstP[10,5]
 G  findWorstP[10,6]
 G  findWorstP[10,7]
 G  findWorstP[10,8]
 G  findWorstP[10,9]
 G  findWorstP[10,11]
 G  findWorstP[10,12]
 G  findWorstP[10,13]
 G  findWorstP[10,14]
 G  findWorstP[10,15]
 G  findWorstP[11,1]
 G  findWorstP[11,2]
 G  findWorstP[11,3]
 G  findWorstP[11,4]
 G  findWorstP[11,5]
 G  findWorstP[11,6]
 G  findWorstP[11,7]
 G  findWorstP[11,8]
 G  findWorstP[11,9]
 G  findWorstP[11,10]
 G  findWorstP[11,12]
 G  findWorstP[11,13]
 G  findWorstP[11,14]
 G  findWorstP[11,15]
 G  findWorstP[12,1]
 G  findWorstP[12,2]
 G  findWorstP[12,3]
 G  findWorstP[12,4]
 G  findWorstP[12,5]
 G  findWorstP[12,6]
 G  findWorstP[12,7]
 G  findWorstP[12,8]
 G  findWorstP[12,9]
 G  findWorstP[12,10]
 G  findWorstP[12,11]
 G  findWorstP[12,13]
 G  findWorstP[12,14]
 G  findWorstP[12,15]
 G  findWorstP[13,1]
 G  findWorstP[13,2]
 G  findWorstP[13,3]
 G  findWorstP[13,4]
 G  findWorstP[13,5]
 G  findWorstP[13,6]
 G  findWorstP[13,7]
 G  findWorstP[13,8]
 G  findWorstP[13,9]
 G  findWorstP[13,10]
 G  findWorstP[13,11]
 G  findWorstP[13,12]
 G  findWorstP[13,14]
 G  findWorstP[13,15]
 G  findWorstP[14,1]
 G  findWorstP[14,2]
 G  findWorstP[14,3]
 G  findWorstP[14,4]
 G  findWorstP[14,5]
 G  findWorstP[14,6]
 G  findWorstP[14,7]
 G  findWorstP[14,8]
 G  findWorstP[14,9]
 G  findWorstP[14,10]
 G  findWorstP[14,11]
 G  findWorstP[14,12]
 G  findWorstP[14,13]
 G  findWorstP[14,15]
 G  findWorstP[15,1]
 G  findWorstP[15,2]
 G  findWorstP[15,3]
 G  findWorstP[15,4]
 G  findWorstP[15,5]
 G  findWorstP[15,6]
 G  findWorstP[15,7]
 G  findWorstP[15,8]
 G  findWorstP[15,9]
 G  findWorstP[15,10]
 G  findWorstP[15,11]
 G  findWorstP[15,12]
 G  findWorstP[15,13]
 G  findWorstP[15,14]
COLUMNS
    z         OBJ       1
    z         findWorstP[1,2]  1
    z         findWorstP[1,3]  1
    z         findWorstP[1,4]  1
    z         findWorstP[1,5]  1
    z         findWorstP[1,6]  1
    z         findWorstP[1,7]  1
    z         findWorstP[1,8]  1
    z         findWorstP[1,9]  1
    z         findWorstP[1,10]  1
    z         findWorstP[1,11]  1
    z         findWorstP[1,12]  1
    z         findWorstP[1,13]  1
    z         findWorstP[1,14]  1
    z         findWorstP[1,15]  1
    z         findWorstP[2,1]  1
    z         findWorstP[2,3]  1
    z         findWorstP[2,4]  1
    z         findWorstP[2,5]  1
    z         findWorstP[2,6]  1
    z         findWorstP[2,7]  1
    z         findWorstP[2,8]  1
    z         findWorstP[2,9]  1
    z         findWorstP[2,10]  1
    z         findWorstP[2,11]  1
    z         findWorstP[2,12]  1
    z         findWorstP[2,13]  1
    z         findWorstP[2,14]  1
    z         findWorstP[2,15]  1
    z         findWorstP[3,1]  1
    z         findWorstP[3,2]  1
    z         findWorstP[3,4]  1
    z         findWorstP[3,5]  1
    z         findWorstP[3,6]  1
    z         findWorstP[3,7]  1
    z         findWorstP[3,8]  1
    z         findWorstP[3,9]  1
    z         findWorstP[3,10]  1
    z         findWorstP[3,11]  1
    z         findWorstP[3,12]  1
    z         findWorstP[3,13]  1
    z         findWorstP[3,14]  1
    z         findWorstP[3,15]  1
    z         findWorstP[4,1]  1
    z         findWorstP[4,2]  1
    z         findWorstP[4,3]  1
    z         findWorstP[4,5]  1
    z         findWorstP[4,6]  1
    z         findWorstP[4,7]  1
    z         findWorstP[4,8]  1
    z         findWorstP[4,9]  1
    z         findWorstP[4,10]  1
    z         findWorstP[4,11]  1
    z         findWorstP[4,12]  1
    z         findWorstP[4,13]  1
    z         findWorstP[4,14]  1
    z         findWorstP[4,15]  1
    z         findWorstP[5,1]  1
    z         findWorstP[5,2]  1
    z         findWorstP[5,3]  1
    z         findWorstP[5,4]  1
    z         findWorstP[5,6]  1
    z         findWorstP[5,7]  1
    z         findWorstP[5,8]  1
    z         findWorstP[5,9]  1
    z         findWorstP[5,10]  1
    z         findWorstP[5,11]  1
    z         findWorstP[5,12]  1
    z         findWorstP[5,13]  1
    z         findWorstP[5,14]  1
    z         findWorstP[5,15]  1
    z         findWorstP[6,1]  1
    z         findWorstP[6,2]  1
    z         findWorstP[6,3]  1
    z         findWorstP[6,4]  1
    z         findWorstP[6,5]  1
    z         findWorstP[6,7]  1
    z         findWorstP[6,8]  1
    z         findWorstP[6,9]  1
    z         findWorstP[6,10]  1
    z         findWorstP[6,11]  1
    z         findWorstP[6,12]  1
    z         findWorstP[6,13]  1
    z         findWorstP[6,14]  1
    z         findWorstP[6,15]  1
    z         findWorstP[7,1]  1
    z         findWorstP[7,2]  1
    z         findWorstP[7,3]  1
    z         findWorstP[7,4]  1
    z         findWorstP[7,5]  1
    z         findWorstP[7,6]  1
    z         findWorstP[7,8]  1
    z         findWorstP[7,9]  1
    z         findWorstP[7,10]  1
    z         findWorstP[7,11]  1
    z         findWorstP[7,12]  1
    z         findWorstP[7,13]  1
    z         findWorstP[7,14]  1
    z         findWorstP[7,15]  1
    z         findWorstP[8,1]  1
    z         findWorstP[8,2]  1
    z         findWorstP[8,3]  1
    z         findWorstP[8,4]  1
    z         findWorstP[8,5]  1
    z         findWorstP[8,6]  1
    z         findWorstP[8,7]  1
    z         findWorstP[8,9]  1
    z         findWorstP[8,10]  1
    z         findWorstP[8,11]  1
    z         findWorstP[8,12]  1
    z         findWorstP[8,13]  1
    z         findWorstP[8,14]  1
    z         findWorstP[8,15]  1
    z         findWorstP[9,1]  1
    z         findWorstP[9,2]  1
    z         findWorstP[9,3]  1
    z         findWorstP[9,4]  1
    z         findWorstP[9,5]  1
    z         findWorstP[9,6]  1
    z         findWorstP[9,7]  1
    z         findWorstP[9,8]  1
    z         findWorstP[9,10]  1
    z         findWorstP[9,11]  1
    z         findWorstP[9,12]  1
    z         findWorstP[9,13]  1
    z         findWorstP[9,14]  1
    z         findWorstP[9,15]  1
    z         findWorstP[10,1]  1
    z         findWorstP[10,2]  1
    z         findWorstP[10,3]  1
    z         findWorstP[10,4]  1
    z         findWorstP[10,5]  1
    z         findWorstP[10,6]  1
    z         findWorstP[10,7]  1
    z         findWorstP[10,8]  1
    z         findWorstP[10,9]  1
    z         findWorstP[10,11]  1
    z         findWorstP[10,12]  1
    z         findWorstP[10,13]  1
    z         findWorstP[10,14]  1
    z         findWorstP[10,15]  1
    z         findWorstP[11,1]  1
    z         findWorstP[11,2]  1
    z         findWorstP[11,3]  1
    z         findWorstP[11,4]  1
    z         findWorstP[11,5]  1
    z         findWorstP[11,6]  1
    z         findWorstP[11,7]  1
    z         findWorstP[11,8]  1
    z         findWorstP[11,9]  1
    z         findWorstP[11,10]  1
    z         findWorstP[11,12]  1
    z         findWorstP[11,13]  1
    z         findWorstP[11,14]  1
    z         findWorstP[11,15]  1
    z         findWorstP[12,1]  1
    z         findWorstP[12,2]  1
    z         findWorstP[12,3]  1
    z         findWorstP[12,4]  1
    z         findWorstP[12,5]  1
    z         findWorstP[12,6]  1
    z         findWorstP[12,7]  1
    z         findWorstP[12,8]  1
    z         findWorstP[12,9]  1
    z         findWorstP[12,10]  1
    z         findWorstP[12,11]  1
    z         findWorstP[12,13]  1
    z         findWorstP[12,14]  1
    z         findWorstP[12,15]  1
    z         findWorstP[13,1]  1
    z         findWorstP[13,2]  1
    z         findWorstP[13,3]  1
    z         findWorstP[13,4]  1
    z         findWorstP[13,5]  1
    z         findWorstP[13,6]  1
    z         findWorstP[13,7]  1
    z         findWorstP[13,8]  1
    z         findWorstP[13,9]  1
    z         findWorstP[13,10]  1
    z         findWorstP[13,11]  1
    z         findWorstP[13,12]  1
    z         findWorstP[13,14]  1
    z         findWorstP[13,15]  1
    z         findWorstP[14,1]  1
    z         findWorstP[14,2]  1
    z         findWorstP[14,3]  1
    z         findWorstP[14,4]  1
    z         findWorstP[14,5]  1
    z         findWorstP[14,6]  1
    z         findWorstP[14,7]  1
    z         findWorstP[14,8]  1
    z         findWorstP[14,9]  1
    z         findWorstP[14,10]  1
    z         findWorstP[14,11]  1
    z         findWorstP[14,12]  1
    z         findWorstP[14,13]  1
    z         findWorstP[14,15]  1
    z         findWorstP[15,1]  1
    z         findWorstP[15,2]  1
    z         findWorstP[15,3]  1
    z         findWorstP[15,4]  1
    z         findWorstP[15,5]  1
    z         findWorstP[15,6]  1
    z         findWorstP[15,7]  1
    z         findWorstP[15,8]  1
    z         findWorstP[15,9]  1
    z         findWorstP[15,10]  1
    z         findWorstP[15,11]  1
    z         findWorstP[15,12]  1
    z         findWorstP[15,13]  1
    z         findWorstP[15,14]  1
    MARKER    'MARKER'                 'INTORG'
    x[1,1]    allocateEach[1]  1
    x[1,1]    findWorstP[1,2]  1
    x[1,1]    findWorstP[1,3]  1
    x[1,1]    findWorstP[1,4]  1
    x[1,1]    findWorstP[1,5]  1
    x[1,1]    findWorstP[1,6]  1
    x[1,1]    findWorstP[1,7]  1
    x[1,1]    findWorstP[1,8]  1
    x[1,1]    findWorstP[1,9]  1
    x[1,1]    findWorstP[1,10]  1
    x[1,1]    findWorstP[1,11]  1
    x[1,1]    findWorstP[1,12]  1
    x[1,1]    findWorstP[1,13]  1
    x[1,1]    findWorstP[1,14]  1
    x[1,1]    findWorstP[1,15]  1
    x[1,1]    findWorstP[2,1]  -1
    x[1,1]    findWorstP[3,1]  -1
    x[1,1]    findWorstP[4,1]  -1
    x[1,1]    findWorstP[5,1]  -1
    x[1,1]    findWorstP[6,1]  -1
    x[1,1]    findWorstP[7,1]  -1
    x[1,1]    findWorstP[8,1]  -1
    x[1,1]    findWorstP[9,1]  -1
    x[1,1]    findWorstP[10,1]  -1
    x[1,1]    findWorstP[11,1]  -1
    x[1,1]    findWorstP[12,1]  -1
    x[1,1]    findWorstP[13,1]  -1
    x[1,1]    findWorstP[14,1]  -1
    x[1,1]    findWorstP[15,1]  -1
    x[2,1]    allocateEach[1]  1
    x[2,1]    findWorstP[1,2]  -1
    x[2,1]    findWorstP[2,1]  1
    x[2,1]    findWorstP[2,3]  1
    x[2,1]    findWorstP[2,4]  1
    x[2,1]    findWorstP[2,5]  1
    x[2,1]    findWorstP[2,6]  1
    x[2,1]    findWorstP[2,7]  1
    x[2,1]    findWorstP[2,8]  1
    x[2,1]    findWorstP[2,9]  1
    x[2,1]    findWorstP[2,10]  1
    x[2,1]    findWorstP[2,11]  1
    x[2,1]    findWorstP[2,12]  1
    x[2,1]    findWorstP[2,13]  1
    x[2,1]    findWorstP[2,14]  1
    x[2,1]    findWorstP[2,15]  1
    x[2,1]    findWorstP[3,2]  -1
    x[2,1]    findWorstP[4,2]  -1
    x[2,1]    findWorstP[5,2]  -1
    x[2,1]    findWorstP[6,2]  -1
    x[2,1]    findWorstP[7,2]  -1
    x[2,1]    findWorstP[8,2]  -1
    x[2,1]    findWorstP[9,2]  -1
    x[2,1]    findWorstP[10,2]  -1
    x[2,1]    findWorstP[11,2]  -1
    x[2,1]    findWorstP[12,2]  -1
    x[2,1]    findWorstP[13,2]  -1
    x[2,1]    findWorstP[14,2]  -1
    x[2,1]    findWorstP[15,2]  -1
    x[3,1]    allocateEach[1]  1
    x[3,1]    findWorstP[1,3]  -1
    x[3,1]    findWorstP[2,3]  -1
    x[3,1]    findWorstP[3,1]  1
    x[3,1]    findWorstP[3,2]  1
    x[3,1]    findWorstP[3,4]  1
    x[3,1]    findWorstP[3,5]  1
    x[3,1]    findWorstP[3,6]  1
    x[3,1]    findWorstP[3,7]  1
    x[3,1]    findWorstP[3,8]  1
    x[3,1]    findWorstP[3,9]  1
    x[3,1]    findWorstP[3,10]  1
    x[3,1]    findWorstP[3,11]  1
    x[3,1]    findWorstP[3,12]  1
    x[3,1]    findWorstP[3,13]  1
    x[3,1]    findWorstP[3,14]  1
    x[3,1]    findWorstP[3,15]  1
    x[3,1]    findWorstP[4,3]  -1
    x[3,1]    findWorstP[5,3]  -1
    x[3,1]    findWorstP[6,3]  -1
    x[3,1]    findWorstP[7,3]  -1
    x[3,1]    findWorstP[8,3]  -1
    x[3,1]    findWorstP[9,3]  -1
    x[3,1]    findWorstP[10,3]  -1
    x[3,1]    findWorstP[11,3]  -1
    x[3,1]    findWorstP[12,3]  -1
    x[3,1]    findWorstP[13,3]  -1
    x[3,1]    findWorstP[14,3]  -1
    x[3,1]    findWorstP[15,3]  -1
    x[4,1]    allocateEach[1]  1
    x[4,1]    findWorstP[1,4]  -1
    x[4,1]    findWorstP[2,4]  -1
    x[4,1]    findWorstP[3,4]  -1
    x[4,1]    findWorstP[4,1]  1
    x[4,1]    findWorstP[4,2]  1
    x[4,1]    findWorstP[4,3]  1
    x[4,1]    findWorstP[4,5]  1
    x[4,1]    findWorstP[4,6]  1
    x[4,1]    findWorstP[4,7]  1
    x[4,1]    findWorstP[4,8]  1
    x[4,1]    findWorstP[4,9]  1
    x[4,1]    findWorstP[4,10]  1
    x[4,1]    findWorstP[4,11]  1
    x[4,1]    findWorstP[4,12]  1
    x[4,1]    findWorstP[4,13]  1
    x[4,1]    findWorstP[4,14]  1
    x[4,1]    findWorstP[4,15]  1
    x[4,1]    findWorstP[5,4]  -1
    x[4,1]    findWorstP[6,4]  -1
    x[4,1]    findWorstP[7,4]  -1
    x[4,1]    findWorstP[8,4]  -1
    x[4,1]    findWorstP[9,4]  -1
    x[4,1]    findWorstP[10,4]  -1
    x[4,1]    findWorstP[11,4]  -1
    x[4,1]    findWorstP[12,4]  -1
    x[4,1]    findWorstP[13,4]  -1
    x[4,1]    findWorstP[14,4]  -1
    x[4,1]    findWorstP[15,4]  -1
    x[5,1]    allocateEach[1]  1
    x[5,1]    findWorstP[1,5]  -1
    x[5,1]    findWorstP[2,5]  -1
    x[5,1]    findWorstP[3,5]  -1
    x[5,1]    findWorstP[4,5]  -1
    x[5,1]    findWorstP[5,1]  1
    x[5,1]    findWorstP[5,2]  1
    x[5,1]    findWorstP[5,3]  1
    x[5,1]    findWorstP[5,4]  1
    x[5,1]    findWorstP[5,6]  1
    x[5,1]    findWorstP[5,7]  1
    x[5,1]    findWorstP[5,8]  1
    x[5,1]    findWorstP[5,9]  1
    x[5,1]    findWorstP[5,10]  1
    x[5,1]    findWorstP[5,11]  1
    x[5,1]    findWorstP[5,12]  1
    x[5,1]    findWorstP[5,13]  1
    x[5,1]    findWorstP[5,14]  1
    x[5,1]    findWorstP[5,15]  1
    x[5,1]    findWorstP[6,5]  -1
    x[5,1]    findWorstP[7,5]  -1
    x[5,1]    findWorstP[8,5]  -1
    x[5,1]    findWorstP[9,5]  -1
    x[5,1]    findWorstP[10,5]  -1
    x[5,1]    findWorstP[11,5]  -1
    x[5,1]    findWorstP[12,5]  -1
    x[5,1]    findWorstP[13,5]  -1
    x[5,1]    findWorstP[14,5]  -1
    x[5,1]    findWorstP[15,5]  -1
    x[6,1]    allocateEach[1]  1
    x[6,1]    findWorstP[1,6]  -1
    x[6,1]    findWorstP[2,6]  -1
    x[6,1]    findWorstP[3,6]  -1
    x[6,1]    findWorstP[4,6]  -1
    x[6,1]    findWorstP[5,6]  -1
    x[6,1]    findWorstP[6,1]  1
    x[6,1]    findWorstP[6,2]  1
    x[6,1]    findWorstP[6,3]  1
    x[6,1]    findWorstP[6,4]  1
    x[6,1]    findWorstP[6,5]  1
    x[6,1]    findWorstP[6,7]  1
    x[6,1]    findWorstP[6,8]  1
    x[6,1]    findWorstP[6,9]  1
    x[6,1]    findWorstP[6,10]  1
    x[6,1]    findWorstP[6,11]  1
    x[6,1]    findWorstP[6,12]  1
    x[6,1]    findWorstP[6,13]  1
    x[6,1]    findWorstP[6,14]  1
    x[6,1]    findWorstP[6,15]  1
    x[6,1]    findWorstP[7,6]  -1
    x[6,1]    findWorstP[8,6]  -1
    x[6,1]    findWorstP[9,6]  -1
    x[6,1]    findWorstP[10,6]  -1
    x[6,1]    findWorstP[11,6]  -1
    x[6,1]    findWorstP[12,6]  -1
    x[6,1]    findWorstP[13,6]  -1
    x[6,1]    findWorstP[14,6]  -1
    x[6,1]    findWorstP[15,6]  -1
    x[7,1]    allocateEach[1]  1
    x[7,1]    findWorstP[1,7]  -1
    x[7,1]    findWorstP[2,7]  -1
    x[7,1]    findWorstP[3,7]  -1
    x[7,1]    findWorstP[4,7]  -1
    x[7,1]    findWorstP[5,7]  -1
    x[7,1]    findWorstP[6,7]  -1
    x[7,1]    findWorstP[7,1]  1
    x[7,1]    findWorstP[7,2]  1
    x[7,1]    findWorstP[7,3]  1
    x[7,1]    findWorstP[7,4]  1
    x[7,1]    findWorstP[7,5]  1
    x[7,1]    findWorstP[7,6]  1
    x[7,1]    findWorstP[7,8]  1
    x[7,1]    findWorstP[7,9]  1
    x[7,1]    findWorstP[7,10]  1
    x[7,1]    findWorstP[7,11]  1
    x[7,1]    findWorstP[7,12]  1
    x[7,1]    findWorstP[7,13]  1
    x[7,1]    findWorstP[7,14]  1
    x[7,1]    findWorstP[7,15]  1
    x[7,1]    findWorstP[8,7]  -1
    x[7,1]    findWorstP[9,7]  -1
    x[7,1]    findWorstP[10,7]  -1
    x[7,1]    findWorstP[11,7]  -1
    x[7,1]    findWorstP[12,7]  -1
    x[7,1]    findWorstP[13,7]  -1
    x[7,1]    findWorstP[14,7]  -1
    x[7,1]    findWorstP[15,7]  -1
    x[8,1]    allocateEach[1]  1
    x[8,1]    findWorstP[1,8]  -1
    x[8,1]    findWorstP[2,8]  -1
    x[8,1]    findWorstP[3,8]  -1
    x[8,1]    findWorstP[4,8]  -1
    x[8,1]    findWorstP[5,8]  -1
    x[8,1]    findWorstP[6,8]  -1
    x[8,1]    findWorstP[7,8]  -1
    x[8,1]    findWorstP[8,1]  1
    x[8,1]    findWorstP[8,2]  1
    x[8,1]    findWorstP[8,3]  1
    x[8,1]    findWorstP[8,4]  1
    x[8,1]    findWorstP[8,5]  1
    x[8,1]    findWorstP[8,6]  1
    x[8,1]    findWorstP[8,7]  1
    x[8,1]    findWorstP[8,9]  1
    x[8,1]    findWorstP[8,10]  1
    x[8,1]    findWorstP[8,11]  1
    x[8,1]    findWorstP[8,12]  1
    x[8,1]    findWorstP[8,13]  1
    x[8,1]    findWorstP[8,14]  1
    x[8,1]    findWorstP[8,15]  1
    x[8,1]    findWorstP[9,8]  -1
    x[8,1]    findWorstP[10,8]  -1
    x[8,1]    findWorstP[11,8]  -1
    x[8,1]    findWorstP[12,8]  -1
    x[8,1]    findWorstP[13,8]  -1
    x[8,1]    findWorstP[14,8]  -1
    x[8,1]    findWorstP[15,8]  -1
    x[9,1]    allocateEach[1]  1
    x[9,1]    findWorstP[1,9]  -1
    x[9,1]    findWorstP[2,9]  -1
    x[9,1]    findWorstP[3,9]  -1
    x[9,1]    findWorstP[4,9]  -1
    x[9,1]    findWorstP[5,9]  -1
    x[9,1]    findWorstP[6,9]  -1
    x[9,1]    findWorstP[7,9]  -1
    x[9,1]    findWorstP[8,9]  -1
    x[9,1]    findWorstP[9,1]  1
    x[9,1]    findWorstP[9,2]  1
    x[9,1]    findWorstP[9,3]  1
    x[9,1]    findWorstP[9,4]  1
    x[9,1]    findWorstP[9,5]  1
    x[9,1]    findWorstP[9,6]  1
    x[9,1]    findWorstP[9,7]  1
    x[9,1]    findWorstP[9,8]  1
    x[9,1]    findWorstP[9,10]  1
    x[9,1]    findWorstP[9,11]  1
    x[9,1]    findWorstP[9,12]  1
    x[9,1]    findWorstP[9,13]  1
    x[9,1]    findWorstP[9,14]  1
    x[9,1]    findWorstP[9,15]  1
    x[9,1]    findWorstP[10,9]  -1
    x[9,1]    findWorstP[11,9]  -1
    x[9,1]    findWorstP[12,9]  -1
    x[9,1]    findWorstP[13,9]  -1
    x[9,1]    findWorstP[14,9]  -1
    x[9,1]    findWorstP[15,9]  -1
    x[10,1]   allocateEach[1]  1
    x[10,1]   findWorstP[1,10]  -1
    x[10,1]   findWorstP[2,10]  -1
    x[10,1]   findWorstP[3,10]  -1
    x[10,1]   findWorstP[4,10]  -1
    x[10,1]   findWorstP[5,10]  -1
    x[10,1]   findWorstP[6,10]  -1
    x[10,1]   findWorstP[7,10]  -1
    x[10,1]   findWorstP[8,10]  -1
    x[10,1]   findWorstP[9,10]  -1
    x[10,1]   findWorstP[10,1]  1
    x[10,1]   findWorstP[10,2]  1
    x[10,1]   findWorstP[10,3]  1
    x[10,1]   findWorstP[10,4]  1
    x[10,1]   findWorstP[10,5]  1
    x[10,1]   findWorstP[10,6]  1
    x[10,1]   findWorstP[10,7]  1
    x[10,1]   findWorstP[10,8]  1
    x[10,1]   findWorstP[10,9]  1
    x[10,1]   findWorstP[10,11]  1
    x[10,1]   findWorstP[10,12]  1
    x[10,1]   findWorstP[10,13]  1
    x[10,1]   findWorstP[10,14]  1
    x[10,1]   findWorstP[10,15]  1
    x[10,1]   findWorstP[11,10]  -1
    x[10,1]   findWorstP[12,10]  -1
    x[10,1]   findWorstP[13,10]  -1
    x[10,1]   findWorstP[14,10]  -1
    x[10,1]   findWorstP[15,10]  -1
    x[11,1]   allocateEach[1]  1
    x[11,1]   findWorstP[1,11]  -1
    x[11,1]   findWorstP[2,11]  -1
    x[11,1]   findWorstP[3,11]  -1
    x[11,1]   findWorstP[4,11]  -1
    x[11,1]   findWorstP[5,11]  -1
    x[11,1]   findWorstP[6,11]  -1
    x[11,1]   findWorstP[7,11]  -1
    x[11,1]   findWorstP[8,11]  -1
    x[11,1]   findWorstP[9,11]  -1
    x[11,1]   findWorstP[10,11]  -1
    x[11,1]   findWorstP[11,1]  1
    x[11,1]   findWorstP[11,2]  1
    x[11,1]   findWorstP[11,3]  1
    x[11,1]   findWorstP[11,4]  1
    x[11,1]   findWorstP[11,5]  1
    x[11,1]   findWorstP[11,6]  1
    x[11,1]   findWorstP[11,7]  1
    x[11,1]   findWorstP[11,8]  1
    x[11,1]   findWorstP[11,9]  1
    x[11,1]   findWorstP[11,10]  1
    x[11,1]   findWorstP[11,12]  1
    x[11,1]   findWorstP[11,13]  1
    x[11,1]   findWorstP[11,14]  1
    x[11,1]   findWorstP[11,15]  1
    x[11,1]   findWorstP[12,11]  -1
    x[11,1]   findWorstP[13,11]  -1
    x[11,1]   findWorstP[14,11]  -1
    x[11,1]   findWorstP[15,11]  -1
    x[12,1]   allocateEach[1]  1
    x[12,1]   findWorstP[1,12]  -1
    x[12,1]   findWorstP[2,12]  -1
    x[12,1]   findWorstP[3,12]  -1
    x[12,1]   findWorstP[4,12]  -1
    x[12,1]   findWorstP[5,12]  -1
    x[12,1]   findWorstP[6,12]  -1
    x[12,1]   findWorstP[7,12]  -1
    x[12,1]   findWorstP[8,12]  -1
    x[12,1]   findWorstP[9,12]  -1
    x[12,1]   findWorstP[10,12]  -1
    x[12,1]   findWorstP[11,12]  -1
    x[12,1]   findWorstP[12,1]  1
    x[12,1]   findWorstP[12,2]  1
    x[12,1]   findWorstP[12,3]  1
    x[12,1]   findWorstP[12,4]  1
    x[12,1]   findWorstP[12,5]  1
    x[12,1]   findWorstP[12,6]  1
    x[12,1]   findWorstP[12,7]  1
    x[12,1]   findWorstP[12,8]  1
    x[12,1]   findWorstP[12,9]  1
    x[12,1]   findWorstP[12,10]  1
    x[12,1]   findWorstP[12,11]  1
    x[12,1]   findWorstP[12,13]  1
    x[12,1]   findWorstP[12,14]  1
    x[12,1]   findWorstP[12,15]  1
    x[12,1]   findWorstP[13,12]  -1
    x[12,1]   findWorstP[14,12]  -1
    x[12,1]   findWorstP[15,12]  -1
    x[13,1]   allocateEach[1]  1
    x[13,1]   findWorstP[1,13]  -1
    x[13,1]   findWorstP[2,13]  -1
    x[13,1]   findWorstP[3,13]  -1
    x[13,1]   findWorstP[4,13]  -1
    x[13,1]   findWorstP[5,13]  -1
    x[13,1]   findWorstP[6,13]  -1
    x[13,1]   findWorstP[7,13]  -1
    x[13,1]   findWorstP[8,13]  -1
    x[13,1]   findWorstP[9,13]  -1
    x[13,1]   findWorstP[10,13]  -1
    x[13,1]   findWorstP[11,13]  -1
    x[13,1]   findWorstP[12,13]  -1
    x[13,1]   findWorstP[13,1]  1
    x[13,1]   findWorstP[13,2]  1
    x[13,1]   findWorstP[13,3]  1
    x[13,1]   findWorstP[13,4]  1
    x[13,1]   findWorstP[13,5]  1
    x[13,1]   findWorstP[13,6]  1
    x[13,1]   findWorstP[13,7]  1
    x[13,1]   findWorstP[13,8]  1
    x[13,1]   findWorstP[13,9]  1
    x[13,1]   findWorstP[13,10]  1
    x[13,1]   findWorstP[13,11]  1
    x[13,1]   findWorstP[13,12]  1
    x[13,1]   findWorstP[13,14]  1
    x[13,1]   findWorstP[13,15]  1
    x[13,1]   findWorstP[14,13]  -1
    x[13,1]   findWorstP[15,13]  -1
    x[14,1]   allocateEach[1]  1
    x[14,1]   findWorstP[1,14]  -1
    x[14,1]   findWorstP[2,14]  -1
    x[14,1]   findWorstP[3,14]  -1
    x[14,1]   findWorstP[4,14]  -1
    x[14,1]   findWorstP[5,14]  -1
    x[14,1]   findWorstP[6,14]  -1
    x[14,1]   findWorstP[7,14]  -1
    x[14,1]   findWorstP[8,14]  -1
    x[14,1]   findWorstP[9,14]  -1
    x[14,1]   findWorstP[10,14]  -1
    x[14,1]   findWorstP[11,14]  -1
    x[14,1]   findWorstP[12,14]  -1
    x[14,1]   findWorstP[13,14]  -1
    x[14,1]   findWorstP[14,1]  1
    x[14,1]   findWorstP[14,2]  1
    x[14,1]   findWorstP[14,3]  1
    x[14,1]   findWorstP[14,4]  1
    x[14,1]   findWorstP[14,5]  1
    x[14,1]   findWorstP[14,6]  1
    x[14,1]   findWorstP[14,7]  1
    x[14,1]   findWorstP[14,8]  1
    x[14,1]   findWorstP[14,9]  1
    x[14,1]   findWorstP[14,10]  1
    x[14,1]   findWorstP[14,11]  1
    x[14,1]   findWorstP[14,12]  1
    x[14,1]   findWorstP[14,13]  1
    x[14,1]   findWorstP[14,15]  1
    x[14,1]   findWorstP[15,14]  -1
    x[15,1]   allocateEach[1]  1
    x[15,1]   findWorstP[1,15]  -1
    x[15,1]   findWorstP[2,15]  -1
    x[15,1]   findWorstP[3,15]  -1
    x[15,1]   findWorstP[4,15]  -1
    x[15,1]   findWorstP[5,15]  -1
    x[15,1]   findWorstP[6,15]  -1
    x[15,1]   findWorstP[7,15]  -1
    x[15,1]   findWorstP[8,15]  -1
    x[15,1]   findWorstP[9,15]  -1
    x[15,1]   findWorstP[10,15]  -1
    x[15,1]   findWorstP[11,15]  -1
    x[15,1]   findWorstP[12,15]  -1
    x[15,1]   findWorstP[13,15]  -1
    x[15,1]   findWorstP[14,15]  -1
    x[15,1]   findWorstP[15,1]  1
    x[15,1]   findWorstP[15,2]  1
    x[15,1]   findWorstP[15,3]  1
    x[15,1]   findWorstP[15,4]  1
    x[15,1]   findWorstP[15,5]  1
    x[15,1]   findWorstP[15,6]  1
    x[15,1]   findWorstP[15,7]  1
    x[15,1]   findWorstP[15,8]  1
    x[15,1]   findWorstP[15,9]  1
    x[15,1]   findWorstP[15,10]  1
    x[15,1]   findWorstP[15,11]  1
    x[15,1]   findWorstP[15,12]  1
    x[15,1]   findWorstP[15,13]  1
    x[15,1]   findWorstP[15,14]  1
    MARKER    'MARKER'                 'INTEND'
RHS
    RHS1      allocateEach[1]  1
BOUNDS
 UP BND1      z         1
 BV BND1      x[1,1]  
 BV BND1      x[2,1]  
 BV BND1      x[3,1]  
 BV BND1      x[4,1]  
 BV BND1      x[5,1]  
 BV BND1      x[6,1]  
 BV BND1      x[7,1]  
 BV BND1      x[8,1]  
 BV BND1      x[9,1]  
 BV BND1      x[10,1] 
 BV BND1      x[11,1] 
 BV BND1      x[12,1] 
 BV BND1      x[13,1] 
 BV BND1      x[14,1] 
 BV BND1      x[15,1] 
ENDATA
